sifdecoder -A pc64.lnx.gfo -st   TABLE8

 Problem name: TABLE8

 Double precision version will be formed

 The objective function uses 2 linear groups
 
 There are 72 linear equality constraints
 
 There are 1271 variables bounded from below and above 
 
 
 File successfully decoded
 CUTEST: tools (double precision version) compiled successfully
 CUTEst: ipopt (double precision version) compiled successfully

******************************************************************************
This program contains Ipopt, a library for large-scale nonlinear optimization.
 Ipopt is released as open source code under the Eclipse Public License (EPL).
         For more information visit http://projects.coin-or.org/Ipopt
******************************************************************************

This is Ipopt version trunk, running with linear solver ma57.

Number of nonzeros in equality constraint Jacobian...:     2542
Number of nonzeros in inequality constraint Jacobian.:        0
Number of nonzeros in Lagrangian Hessian.............:     1271

Total number of variables............................:     1271
                     variables with only lower bounds:        0
                variables with lower and upper bounds:     1271
                     variables with only upper bounds:        0
Total number of equality constraints.................:       72
Total number of inequality constraints...............:        0
        inequality constraints with only lower bounds:        0
   inequality constraints with lower and upper bounds:        0
        inequality constraints with only upper bounds:        0

iter    objective    inf_pr   inf_du lg(mu)  ||d||  lg(rg) alpha_du alpha_pr  ls
   0  1.8553735e+00 1.01e+01 2.12e-01  -1.0 0.00e+00    -  0.00e+00 0.00e+00   0
   1  2.0448481e+00 1.15e-10 3.42e-03  -1.0 1.46e+01    -  9.86e-01 1.00e+00h  1
   2  2.4043816e+00 4.44e-15 3.48e-03  -1.0 6.10e+00    -  9.90e-01 1.00e+00f  1
   3  2.3522138e+00 9.33e-15 6.52e-04  -1.0 5.15e-02    -  9.93e-01 1.00e+00f  1
   4  2.0090633e+00 3.67e-12 3.94e-17  -1.7 1.29e+01    -  1.00e+00 1.00e+00f  1
   5  1.9164857e+00 5.18e-13 1.65e-17  -2.5 2.83e+00    -  1.00e+00 1.00e+00f  1
   6  1.8989662e+00 2.47e-15 3.03e-17  -3.8 4.54e-01    -  1.00e+00 1.00e+00f  1
   7  1.8969336e+00 1.63e-14 1.68e-17  -3.8 1.76e-02    -  1.00e+00 1.00e+00f  1
   8  1.8959132e+00 2.96e-15 3.79e-17  -5.7 2.89e-02    -  1.00e+00 1.00e+00f  1
   9  1.8957700e+00 2.44e-15 2.35e-17  -5.7 4.87e-03    -  1.00e+00 1.00e+00f  1
iter    objective    inf_pr   inf_du lg(mu)  ||d||  lg(rg) alpha_du alpha_pr  ls
  10  1.8957345e+00 2.61e-15 3.54e-17  -5.7 2.39e-03    -  1.00e+00 1.00e+00f  1
  11  1.8957193e+00 2.00e-15 4.18e-17  -8.6 1.29e-03    -  1.00e+00 1.00e+00f  1
  12  1.8957170e+00 2.61e-15 1.43e-17  -8.6 6.43e-04    -  1.00e+00 1.00e+00f  1
  13  1.8957164e+00 2.76e-15 1.43e-17  -8.6 3.20e-04    -  1.00e+00 1.00e+00f  1
  14  1.8957163e+00 1.62e-15 1.83e-17  -8.6 1.57e-04    -  1.00e+00 1.00e+00h  1
  15  1.8957163e+00 1.21e-15 1.83e-17  -8.6 7.30e-05    -  1.00e+00 1.00e+00h  1
  16  1.8957163e+00 3.96e-15 5.73e-18  -9.0 3.19e-05    -  1.00e+00 1.00e+00h  1

Number of Iterations....: 16

                                   (scaled)                 (unscaled)
Objective...............:   1.8957162577931568e+00    1.8957162577931568e+00
Dual infeasibility......:   5.7325118624545851e-18    5.7325118624545851e-18
Constraint violation....:   3.9551695252271202e-15    3.9551695252271202e-15
Complementarity.........:   2.9487098490666981e-09    2.9487098490666981e-09
Overall NLP error.......:   2.9487098490666981e-09    2.9487098490666981e-09


Number of objective function evaluations             = 17
Number of objective gradient evaluations             = 17
Number of equality constraint evaluations            = 17
Number of inequality constraint evaluations          = 0
Number of equality constraint Jacobian evaluations   = 17
Number of inequality constraint Jacobian evaluations = 0
Number of Lagrangian Hessian evaluations             = 16
Total CPU secs in IPOPT (w/o function evaluations)   =      0.165
Total CPU secs in NLP function evaluations           =      0.013

EXIT: Optimal Solution Found.

************************ CUTEst statistics ************************


 Package used            :  IPOPT
 Problem                 :  TABLE8    
 # variables             =            1271
 # constraints           =              72
 # objective functions   =        0.3500000E+02
 # objective gradients   =        0.1800000E+02
 # objective Hessians    =        0.1700000E+02
 # Hessian-vector prdct  =        0.0000000E+00
 # constraints functions =        0.3600000E+02
 # constraints gradients =        0.1900000E+02
 # constraints Hessians  =        0.1700000E+02
 Exit code               =               0
 Final f                 =        1.8957162577931568D+00
 Bounds feasibility      =        9.5967664037743816D-08
 Set up time             =            0.08 seconds
 Solve time              =            0.43 seconds


******************************************************************

